certificates/rado_a15_c58_N29.cnf
c Rad2 upper bound instance: x1 + 15*x2 - x3 = 58, interval [1,29]
p cnf 29 112
1 3 4 0
-1 -3 -4 0
1 5 18 0
-1 -5 -18 0
2 4 0
-2 -4 0
2 5 19 0
-2 -5 -19 0
3 4 5 0
-3 -4 -5 0
3 5 20 0
-3 -5 -20 0
4 6 0
-4 -6 0
4 5 21 0
-4 -5 -21 0
4 5 7 0
-4 -5 -7 0
5 22 0
-5 -22 0
4 6 8 0
-4 -6 -8 0
5 6 23 0
-5 -6 -23 0
4 7 9 0
-4 -7 -9 0
5 7 24 0
-5 -7 -24 0
4 8 10 0
-4 -8 -10 0
5 8 25 0
-5 -8 -25 0
4 9 11 0
-4 -9 -11 0
5 9 26 0
-5 -9 -26 0
4 10 12 0
-4 -10 -12 0
5 10 27 0
-5 -10 -27 0
4 11 13 0
-4 -11 -13 0
5 11 28 0
-5 -11 -28 0
4 12 14 0
-4 -12 -14 0
5 12 29 0
-5 -12 -29 0
4 13 15 0
-4 -13 -15 0
1 3 14 0
-1 -3 -14 0
4 14 16 0
-4 -14 -16 0
2 3 15 0
-2 -3 -15 0
4 15 17 0
-4 -15 -17 0
3 16 0
-3 -16 0
4 16 18 0
-4 -16 -18 0
3 4 17 0
-3 -4 -17 0
4 17 19 0
-4 -17 -19 0
3 5 18 0
-3 -5 -18 0
4 18 20 0
-4 -18 -20 0
3 6 19 0
-3 -6 -19 0
4 19 21 0
-4 -19 -21 0
3 7 20 0
-3 -7 -20 0
4 20 22 0
-4 -20 -22 0
3 8 21 0
-3 -8 -21 0
4 21 23 0
-4 -21 -23 0
3 9 22 0
-3 -9 -22 0
4 22 24 0
-4 -22 -24 0
3 10 23 0
-3 -10 -23 0
4 23 25 0
-4 -23 -25 0
3 11 24 0
-3 -11 -24 0
4 24 26 0
-4 -24 -26 0
3 12 25 0
-3 -12 -25 0
4 25 27 0
-4 -25 -27 0
3 13 26 0
-3 -13 -26 0
4 26 28 0
-4 -26 -28 0
3 14 27 0
-3 -14 -27 0
4 27 29 0
-4 -27 -29 0
3 15 28 0
-3 -15 -28 0
1 2 29 0
-1 -2 -29 0
3 16 29 0
-3 -16 -29 0
