certificates/rado_a15_c58_N29.drat
-27 -29 0
d -4 -27 -29 0
-4 -3 -28 0
16 -28 0
-16 -29 0
4 16 0
-29 0
16 0
-3 0
-4 0
2 0
6 0
27 0
1 0
5 0
17 0
-18 0
-19 0
-22 0
-23 0
-10 0
20 0
21 0
24 0
9 0
25 0
0
